(set-logic QF_BV)
(declare-fun _substvar_621_ () (_ BitVec 16))
(declare-fun _substvar_616_ () (_ BitVec 16))
(declare-fun _substvar_634_ () (_ BitVec 16))
(declare-fun _substvar_1179_ () (_ BitVec 16))
(declare-fun _substvar_1139_ () (_ BitVec 16))
(declare-fun _substvar_625_ () (_ BitVec 16))
(declare-fun _substvar_626_ () (_ BitVec 16))
(declare-fun _substvar_635_ () (_ BitVec 16))
(declare-fun _substvar_1136_ () (_ BitVec 16))
(declare-fun _substvar_630_ () (_ BitVec 16))
(declare-fun _substvar_612_ () (_ BitVec 16))
(declare-fun _substvar_1140_ () (_ BitVec 16))
(declare-fun _substvar_620_ () (_ BitVec 16))
(assert (let ( (?v_15 ((_ zero_extend 16) _substvar_635_))) (let ((?v_13 (bvadd (_ bv0 32) (bvsub (bvadd (bvadd (_ bv0 32) ?v_15) ((_ zero_extend 16) _substvar_634_)) (_ bv0 32))))) (let ((?v_1 (bvadd ?v_13 (_ bv4 32)))) (let ((?v_19 (bvadd ?v_1 (bvsub (bvadd (bvadd (bvadd ?v_1 (_ bv53 32)) (_ bv0 32)) ((_ zero_extend 16) _substvar_630_)) ?v_1)))) (let ((?v_2 (bvadd ?v_19 (_ bv4 32))) (?v_27 ((_ zero_extend 16) _substvar_626_))) (let ((?v_25 (bvadd ?v_2 (bvsub (bvadd (bvadd (bvadd ?v_2 (_ bv70 32)) ?v_27) ((_ zero_extend 16) _substvar_625_)) ?v_2)))) (let ((?v_3 (bvadd ?v_25 (_ bv4 32))) (?v_33 ((_ zero_extend 16) _substvar_621_))) (let ((?v_31 (bvadd ?v_3 (bvsub (bvadd (bvadd (bvadd ?v_3 (_ bv59 32)) ?v_33) ((_ zero_extend 16) _substvar_620_)) ?v_3)))) (let ((?v_4 (bvadd ?v_31 (_ bv4 32)))) (let ((?v_37 (bvadd ?v_4 (bvsub (bvadd (bvadd (bvadd ?v_4 (_ bv63 32)) (_ bv0 32)) ((_ zero_extend 16) _substvar_616_)) ?v_4)))) (let ((?v_5 (bvadd ?v_37 (_ bv4 32)))) (let ((?v_42 (bvadd ?v_5 (bvsub (bvadd (bvadd (bvadd ?v_5 (_ bv64 32)) (_ bv0 32)) ((_ zero_extend 16) _substvar_612_)) ?v_5)))) (let ((?v_6 (bvadd ?v_42 (_ bv4 32)))) (let ((?v_49 (bvadd ?v_6 (bvsub (bvadd (bvadd (bvadd ?v_6 (_ bv59 32)) (_ bv0 32)) ((_ zero_extend 16) _substvar_1179_)) ?v_6)))) (let ((?v_7 (bvadd ?v_49 (_ bv4 32)))) (let ((?v_51 (bvadd ?v_7 (bvsub (bvadd (bvadd (bvadd ?v_7 (_ bv60 32)) (_ bv0 32)) ((_ zero_extend 16) _substvar_1136_)) ?v_7)))) (let ((?v_8 (bvadd ?v_51 (_ bv4 32))) (?v_50 ((_ zero_extend 16) _substvar_1140_))) (let ((?v_52 (bvadd ?v_8 (bvsub (bvadd (bvadd (bvadd ?v_8 (_ bv62 32)) ?v_50) ((_ zero_extend 16) _substvar_1139_)) ?v_8)))) (let ((?v_53 (bvadd ?v_52 (_ bv4 32)))) (and true true true true true true true true true true true true true true true true true true true true (bvslt (bvadd ?v_53 (_ bv42 32)) (_ bv0 32)) true true true true true true true true true true true true true true true true true true true true true true true true true true true true true true true true true true true true true true true true true true true true true true true true true true true true true true true true true true true true true true true true true true true true true true true true true true true true true true true true true true true true true true true true true true true true true true true true true true true true)))))))))))))))))))))
(check-sat)
(exit)
